NAME : TSP_INST.7728064.tour
COMMENT : Length = 7728064
COMMENT : Found by LKH [Keld Helsgaun] Sat Oct 18 11:07:56 2025
TYPE : TOUR
DIMENSION : 100
TOUR_SECTION
1
40
60
90
94
55
72
61
19
98
11
95
26
43
35
56
92
71
52
96
73
44
24
66
83
15
7
22
38
8
18
6
27
37
89
63
88
70
77
39
91
51
68
41
57
85
93
49
9
80
33
54
16
75
32
28
67
12
23
48
21
4
17
78
53
2
59
81
58
31
42
3
50
97
34
74
62
5
30
36
65
29
45
25
46
82
79
47
76
99
69
13
86
87
20
84
14
100
10
64
-1
EOF
